(declare-fun a31 () (Array (_ BitVec 1) (_ BitVec 3)))
(assert
(let (($e1 (_ bv0 1)))
(let (($e6 (_ bv4 3)))
(let (($e7 (_ bv6 8)))
(let (($e38 (select a31 $e1)))
(let (($e47        a31                  ))
(let (($e54             $e7 ))
(let (($e55 (   extract      $e54)))
(let (($e56 (select $e47 $e55)))
(let (($e57 (   extract      $e38)))
(let (($e58 (store a31 (bvnot $e1) $e6)))
(let (($e59 (store $e58 $e57 $e56)))
(let (($e60 (select $e59 (bvnot $e1))))
            (   extract      $e60)
                                                                                                                              )))))))      )        )                     ))    ))
